RST08
Position Depot: Center
Horizon for Depot: Small
Position of customers: Random
Distribution of the demand: Medium
Width of time windows: Tight
Distribution of the service: Small

VEHICLE 
NUMBER 	 CAPACITY 
 14 	 	 205 
 
CUSTOMER
CUST NO. 	 XCOORD.  	 YCOORD. 	 DEMAND 	 READY TIME 	 DUE DATE 	 SERVICE TIME 
 0 	 	 500 	 	 500 	 	 0 	 	 0 	 	 1733 	 	 0 
  1 	 	 439 	 	 68 	 	 4 	 	 381 	 	 479 	 	 50 
  2 	 	 571 	 	 21 	 	 1 	 	 387 	 	 532 	 	 80 
  3 	 	 440 	 	 223 	 	 71 	 	 312 	 	 405 	 	 100 
  4 	 	 851 	 	 594 	 	 6 	 	 653 	 	 724 	 	 58 
  5 	 	 501 	 	 999 	 	 2 	 	 407 	 	 548 	 	 94 
  6 	 	 202 	 	 982 	 	 1 	 	 1325 	 	 1508 	 	 59 
  7 	 	 217 	 	 312 	 	 7 	 	 581 	 	 676 	 	 52 
  8 	 	 349 	 	 216 	 	 10 	 	 868 	 	 1064 	 	 60 
  9 	 	 560 	 	 62 	 	 82 	 	 1068 	 	 1236 	 	 90 
  10 	 	 415 	 	 623 	 	 52 	 	 1381 	 	 1500 	 	 55 
  11 	 	 595 	 	 722 	 	 10 	 	 987 	 	 1138 	 	 93 
  12 	 	 764 	 	 874 	 	 76 	 	 1019 	 	 1196 	 	 89 
  13 	 	 476 	 	 817 	 	 95 	 	 751 	 	 807 	 	 64 
  14 	 	 805 	 	 48 	 	 6 	 	 529 	 	 639 	 	 89 
  15 	 	 199 	 	 113 	 	 7 	 	 451 	 	 539 	 	 83 
  16 	 	 646 	 	 220 	 	 9 	 	 1168 	 	 1325 	 	 61 
  17 	 	 317 	 	 233 	 	 8 	 	 300 	 	 451 	 	 59 
  18 	 	 417 	 	 38 	 	 2 	 	 1585 	 	 1690 	 	 58 
  19 	 	 541 	 	 992 	 	 4 	 	 1528 	 	 1624 	 	 79 
  20 	 	 621 	 	 917 	 	 9 	 	 987 	 	 1151 	 	 66 
  21 	 	 520 	 	 347 	 	 62 	 	 855 	 	 928 	 	 87 
  22 	 	 588 	 	 981 	 	 1 	 	 448 	 	 537 	 	 65 
  23 	 	 413 	 	 212 	 	 9 	 	 535 	 	 660 	 	 97 
  24 	 	 725 	 	 648 	 	 62 	 	 569 	 	 665 	 	 97 
  25 	 	 530 	 	 620 	 	 9 	 	 781 	 	 908 	 	 93 
  26 	 	 464 	 	 131 	 	 77 	 	 1263 	 	 1455 	 	 75 
  27 	 	 680 	 	 677 	 	 9 	 	 886 	 	 1012 	 	 64 
  28 	 	 126 	 	 418 	 	 61 	 	 1443 	 	 1557 	 	 54 
  29 	 	 529 	 	 707 	 	 8 	 	 788 	 	 958 	 	 68 
  30 	 	 438 	 	 496 	 	 2 	 	 832 	 	 990 	 	 69 
  31 	 	 161 	 	 347 	 	 97 	 	 484 	 	 643 	 	 81 
  32 	 	 275 	 	 598 	 	 3 	 	 703 	 	 885 	 	 88 
  33 	 	 931 	 	 26 	 	 8 	 	 555 	 	 704 	 	 82 
  34 	 	 2 	 	 303 	 	 75 	 	 465 	 	 589 	 	 86 
  35 	 	 893 	 	 895 	 	 10 	 	 425 	 	 612 	 	 60 
  36 	 	 290 	 	 38 	 	 5 	 	 581 	 	 727 	 	 98 
  37 	 	 220 	 	 336 	 	 76 	 	 587 	 	 765 	 	 72 
  38 	 	 320 	 	 614 	 	 6 	 	 1006 	 	 1089 	 	 55 
  39 	 	 41 	 	 359 	 	 4 	 	 459 	 	 528 	 	 72 
  40 	 	 151 	 	 725 	 	 10 	 	 1173 	 	 1255 	 	 56 
  41 	 	 705 	 	 500 	 	 3 	 	 987 	 	 1050 	 	 63 
  42 	 	 236 	 	 944 	 	 3 	 	 1116 	 	 1185 	 	 57 
  43 	 	 252 	 	 536 	 	 3 	 	 116 	 	 275 	 	 56 
  44 	 	 318 	 	 301 	 	 5 	 	 125 	 	 296 	 	 90 
  45 	 	 984 	 	 896 	 	 8 	 	 1060 	 	 1201 	 	 99 
  46 	 	 128 	 	 376 	 	 3 	 	 975 	 	 1125 	 	 89 
  47 	 	 416 	 	 851 	 	 7 	 	 875 	 	 962 	 	 89 
  48 	 	 371 	 	 487 	 	 3 	 	 490 	 	 594 	 	 74 
  49 	 	 542 	 	 812 	 	 3 	 	 1028 	 	 1150 	 	 61 
  50 	 	 749 	 	 616 	 	 51 	 	 403 	 	 590 	 	 61 
  51 	 	 923 	 	 599 	 	 10 	 	 1232 	 	 1344 	 	 86 
  52 	 	 474 	 	 675 	 	 94 	 	 1555 	 	 1727 	 	 61 
  53 	 	 602 	 	 520 	 	 2 	 	 411 	 	 611 	 	 62 
  54 	 	 373 	 	 331 	 	 10 	 	 722 	 	 875 	 	 71 
  55 	 	 889 	 	 493 	 	 68 	 	 763 	 	 829 	 	 87 
  56 	 	 434 	 	 546 	 	 60 	 	 1026 	 	 1144 	 	 88 
  57 	 	 537 	 	 233 	 	 10 	 	 1152 	 	 1314 	 	 61 
  58 	 	 530 	 	 573 	 	 97 	 	 997 	 	 1164 	 	 65 
  59 	 	 237 	 	 491 	 	 6 	 	 585 	 	 657 	 	 86 
  60 	 	 851 	 	 495 	 	 66 	 	 1221 	 	 1309 	 	 66 
  61 	 	 327 	 	 928 	 	 9 	 	 731 	 	 909 	 	 63 
  62 	 	 899 	 	 862 	 	 75 	 	 424 	 	 592 	 	 84 
  63 	 	 498 	 	 106 	 	 2 	 	 1327 	 	 1478 	 	 83 
  64 	 	 359 	 	 295 	 	 80 	 	 1173 	 	 1364 	 	 61 
  65 	 	 153 	 	 246 	 	 8 	 	 276 	 	 473 	 	 77 
  66 	 	 538 	 	 898 	 	 54 	 	 279 	 	 439 	 	 73 
  67 	 	 56 	 	 880 	 	 58 	 	 1505 	 	 1600 	 	 75 
  68 	 	 533 	 	 982 	 	 4 	 	 1561 	 	 1718 	 	 86 
  69 	 	 399 	 	 596 	 	 10 	 	 1058 	 	 1155 	 	 93 
  70 	 	 215 	 	 386 	 	 6 	 	 246 	 	 352 	 	 94 
  71 	 	 552 	 	 735 	 	 6 	 	 1159 	 	 1315 	 	 60 
  72 	 	 694 	 	 931 	 	 10 	 	 443 	 	 519 	 	 62 
  73 	 	 396 	 	 416 	 	 88 	 	 45 	 	 147 	 	 98 
  74 	 	 63 	 	 796 	 	 8 	 	 1654 	 	 1733 	 	 76 
  75 	 	 100 	 	 931 	 	 6 	 	 632 	 	 812 	 	 72 
  76 	 	 310 	 	 469 	 	 6 	 	 1348 	 	 1435 	 	 59 
  77 	 	 453 	 	 9 	 	 73 	 	 650 	 	 748 	 	 87 
  78 	 	 43 	 	 278 	 	 74 	 	 366 	 	 558 	 	 70 
  79 	 	 877 	 	 900 	 	 79 	 	 408 	 	 604 	 	 91 
  80 	 	 534 	 	 142 	 	 6 	 	 299 	 	 395 	 	 72 
  81 	 	 910 	 	 177 	 	 9 	 	 819 	 	 993 	 	 72 
  82 	 	 98 	 	 37 	 	 5 	 	 753 	 	 854 	 	 82 
  83 	 	 270 	 	 249 	 	 2 	 	 961 	 	 1130 	 	 81 
  84 	 	 890 	 	 55 	 	 7 	 	 600 	 	 650 	 	 77 
  85 	 	 447 	 	 414 	 	 52 	 	 393 	 	 513 	 	 57 
  86 	 	 762 	 	 758 	 	 89 	 	 1602 	 	 1733 	 	 67 
  87 	 	 224 	 	 671 	 	 59 	 	 1550 	 	 1733 	 	 79 
  88 	 	 69 	 	 654 	 	 8 	 	 1040 	 	 1195 	 	 76 
  89 	 	 856 	 	 862 	 	 8 	 	 852 	 	 1023 	 	 77 
  90 	 	 800 	 	 46 	 	 75 	 	 542 	 	 598 	 	 53 
  91 	 	 175 	 	 526 	 	 93 	 	 176 	 	 358 	 	 79 
  92 	 	 205 	 	 187 	 	 9 	 	 1250 	 	 1443 	 	 78 
  93 	 	 593 	 	 9 	 	 9 	 	 638 	 	 826 	 	 57 
  94 	 	 421 	 	 755 	 	 10 	 	 957 	 	 1149 	 	 76 
  95 	 	 422 	 	 592 	 	 96 	 	 1042 	 	 1120 	 	 72 
  96 	 	 775 	 	 805 	 	 66 	 	 812 	 	 991 	 	 56 
  97 	 	 970 	 	 989 	 	 79 	 	 1223 	 	 1346 	 	 63 
  98 	 	 662 	 	 427 	 	 5 	 	 125 	 	 279 	 	 99 
  99 	 	 497 	 	 69 	 	 6 	 	 1039 	 	 1163 	 	 76 
  100 	 	 491 	 	 541 	 	 9 	 	 561 	 	 710 	 	 68 
 